Grasp exp. instance_n_15_m_5_id_5.lp tipoLifted 0 szPool 5 nIteration 100 alpha 0.6 
Academic license - for non-commercial use only
Read LP format model from file ../input/instancesGenerated/instance_n_15_m_5_id_5.lp
Reading time = 0.00 seconds
: 5 rows, 15 columns, 75 nonzeros
Optimize a model with 5 rows, 15 columns and 75 nonzeros
Variable types: 0 continuous, 15 integer (15 binary)
Coefficient statistics:
  Matrix range     [1e+00, 1e+01]
  Objective range  [1e+00, 9e+00]
  Bounds range     [1e+00, 1e+00]
  RHS range        [4e+01, 5e+01]
Found heuristic solution: objective 34.0000000

Explored 0 nodes (0 simplex iterations) in 0.00 seconds
Thread count was 1 (of 8 available processors)

Solution count 1: 34 
No other solutions better than 0

Solution limit reached
Best objective 3.400000000000e+01, best bound -, gap -
C_1:	 1.00 x_1  = 0.622685 + 6.00 x_2  = 0.000000 + 9.00 x_3  = 0.060185 + 2.00 x_4  = 1.000000 + 8.00 x_5  = 1.000000 + 8.00 x_6  = 0.770833 + 9.00 x_7  = 0.000000 + 8.00 x_8  = 0.000000 + 8.00 x_9  = 0.270833 + 4.00 x_10  = 1.000000 + 7.00 x_11  = 0.000000 + 10.00 x_12  = 1.000000 + 5.00 x_13  = 0.900463 + 1.00 x_14  = 0.000000 + 10.00 x_15  = 1.000000 <= 48.00
C_2:	 9.00 x_1  = 0.622685 + 6.00 x_2  = 0.000000 + 2.00 x_3  = 0.060185 + 5.00 x_4  = 1.000000 + 4.00 x_5  = 1.000000 + 9.00 x_6  = 0.770833 + 4.00 x_7  = 0.000000 + 8.00 x_8  = 0.000000 + 9.00 x_9  = 0.270833 + 10.00 x_10  = 1.000000 + 8.00 x_11  = 0.000000 + 2.00 x_12  = 1.000000 + 1.00 x_13  = 0.900463 + 3.00 x_14  = 0.000000 + 5.00 x_15  = 1.000000 <= 42.00
C_3:	 9.00 x_1  = 0.622685 + 5.00 x_2  = 0.000000 + 10.00 x_3  = 0.060185 + 9.00 x_4  = 1.000000 + 6.00 x_5  = 1.000000 + 7.00 x_6  = 0.770833 + 8.00 x_7  = 0.000000 + 5.00 x_8  = 0.000000 + 7.00 x_9  = 0.270833 + 6.00 x_10  = 1.000000 + 8.00 x_11  = 0.000000 + 5.00 x_12  = 1.000000 + 5.00 x_13  = 0.900463 + 4.00 x_14  = 0.000000 + 5.00 x_15  = 1.000000 <= 49.00
C_4:	 6.00 x_1  = 0.622685 + 4.00 x_2  = 0.000000 + 3.00 x_3  = 0.060185 + 7.00 x_4  = 1.000000 + 1.00 x_5  = 1.000000 + 6.00 x_6  = 0.770833 + 6.00 x_7  = 0.000000 + 6.00 x_8  = 0.000000 + 5.00 x_9  = 0.270833 + 6.00 x_10  = 1.000000 + 8.00 x_11  = 0.000000 + 4.00 x_12  = 1.000000 + 9.00 x_13  = 0.900463 + 8.00 x_14  = 0.000000 + 6.00 x_15  = 1.000000 <= 42.00
C_5:	 3.00 x_1  = 0.622685 + 8.00 x_2  = 0.000000 + 3.00 x_3  = 0.060185 + 3.00 x_4  = 1.000000 + 6.00 x_5  = 1.000000 + 8.00 x_6  = 0.770833 + 1.00 x_7  = 0.000000 + 4.00 x_8  = 0.000000 + 4.00 x_9  = 0.270833 + 7.00 x_10  = 1.000000 + 9.00 x_11  = 0.000000 + 1.00 x_12  = 1.000000 + 3.00 x_13  = 0.900463 + 5.00 x_14  = 0.000000 + 7.00 x_15  = 1.000000 <= 36.00
Solution initial: 55.701389 
Number Constraints Used in Cover:5
GRASP Method!
Number cuts repeat: 0
value: 55.701389
Number Constraints Used in Cover:13
GRASP Method!
Number cuts repeat: 0
value: 55.701389
Number Constraints Used in Cover:24
GRASP Method!
Number cuts repeat: 0
value: 55.701389
Number Constraints Used in Cover:31
GRASP Method!
Number cuts repeat: 0
value: 55.701389
Number Constraints Used in Cover:32
GRASP Method!
Number cuts repeat: 0
value: 55.701389
Number Constraints Used in Cover:40
GRASP Method!
Number cuts repeat: 0
value: 55.701389
Number Constraints Used in Cover:46
GRASP Method!
Number cuts repeat: 0
value: 55.156250
Number Constraints Used in Cover:51
GRASP Method!
Number cuts repeat: 0
value: 55.156250
Number Constraints Used in Cover:57
GRASP Method!
Number cuts repeat: 0
value: 55.156250
Number Constraints Used in Cover:62
GRASP Method!
Number cuts repeat: 0
value: 55.156250
Number Constraints Used in Cover:65
GRASP Method!
Number cuts repeat: 0
value: 55.156250
Number Constraints Used in Cover:68
GRASP Method!
Number cuts repeat: 0
value: 55.156250
Number Constraints Used in Cover:76
GRASP Method!
Number cuts repeat: 0
value: 55.156250
Number Constraints Used in Cover:80
GRASP Method!
Number cuts repeat: 0
value: 55.156250
Number Constraints Used in Cover:82
GRASP Method!
Number cuts repeat: 0
value: 55.156250
Number Constraints Used in Cover:83
GRASP Method!
Number cuts repeat: 0
value: 55.156250
Number Constraints Used in Cover:88
GRASP Method!
Number cuts repeat: 0
value: 55.156250
Number Constraints Used in Cover:92
GRASP Method!
Number cuts repeat: 0
value: 55.156250
Number Constraints Used in Cover:95
GRASP Method!
Number cuts repeat: 0
value: 55.156250
Number Constraints Used in Cover:101
GRASP Method!
Number cuts repeat: 0
value: 55.156250
Number Constraints Used in Cover:101
GRASP Method!
Number cuts repeat: 0
value: 55.156250
Number Constraints Used in Cover:102
GRASP Method!
Number cuts repeat: 0
value: 55.156250
Number Constraints Used in Cover:105
GRASP Method!
Number cuts repeat: 0
value: 55.156250
Number Constraints Used in Cover:109
GRASP Method!
Number cuts repeat: 0
value: 55.156250
Number Constraints Used in Cover:115
GRASP Method!
Number cuts repeat: 0
value: 55.156250
Number Constraints Used in Cover:130
GRASP Method!
Number cuts repeat: 0
value: 55.156250
Number Constraints Used in Cover:139
GRASP Method!
Number cuts repeat: 0
value: 55.156250
Number Constraints Used in Cover:150
GRASP Method!
Number cuts repeat: 0
value: 55.156250
Number Constraints Used in Cover:162
GRASP Method!
Number cuts repeat: 0
value: 55.156250
Number Constraints Used in Cover:176
GRASP Method!
Number cuts repeat: 0
value: 55.156250
Number Constraints Used in Cover:183
GRASP Method!
Number cuts repeat: 0
value: 55.156250
Number Constraints Used in Cover:189
GRASP Method!
Number cuts repeat: 0
value: 55.156250
Number Constraints Used in Cover:201
GRASP Method!
Number cuts repeat: 0
value: 55.156250
Number Constraints Used in Cover:211
GRASP Method!
Number cuts repeat: 0
value: 55.156250
Number Constraints Used in Cover:222
GRASP Method!
Number cuts repeat: 0
value: 55.156250
Number Constraints Used in Cover:235
GRASP Method!
Number cuts repeat: 0
value: 55.156250
Number Constraints Used in Cover:250
GRASP Method!
Number cuts repeat: 0
value: 55.156250
Number Constraints Used in Cover:259
GRASP Method!
Number cuts repeat: 0
value: 55.156250
Number Constraints Used in Cover:264
GRASP Method!
Number cuts repeat: 0
value: 55.156250
Number Constraints Used in Cover:269
GRASP Method!
Number cuts repeat: 0
value: 55.156250
Number Constraints Used in Cover:274
GRASP Method!
Number cuts repeat: 0
value: 55.156250
Number Constraints Used in Cover:284
GRASP Method!
Number cuts repeat: 0
value: 55.156250
Number Constraints Used in Cover:296
GRASP Method!
Number cuts repeat: 0
value: 55.156250
Number Constraints Used in Cover:297
GRASP Method!
Number cuts repeat: 0
value: 55.156250
Number Constraints Used in Cover:300
GRASP Method!
Number cuts repeat: 0
value: 55.156250
Number Constraints Used in Cover:311
GRASP Method!
Number cuts repeat: 0
value: 55.156250
Number Constraints Used in Cover:319
GRASP Method!
Number cuts repeat: 0
value: 55.156250
Number Constraints Used in Cover:325
GRASP Method!
Number cuts repeat: 0
value: 55.156250
Number Constraints Used in Cover:331
GRASP Method!
Number cuts repeat: 0
value: 55.156250
Number Constraints Used in Cover:334
GRASP Method!
Number cuts repeat: 0
value: 55.156250
Number Constraints Used in Cover:336
GRASP Method!
Number cuts repeat: 0
value: 55.156250
Number Constraints Used in Cover:339
GRASP Method!
Number cuts repeat: 0
value: 55.156250
Number Constraints Used in Cover:349
GRASP Method!
Number cuts repeat: 0
value: 55.156250
Number Constraints Used in Cover:351
GRASP Method!
Number cuts repeat: 0
value: 55.156250
Number Constraints Used in Cover:359
GRASP Method!
Number cuts repeat: 0
value: 55.156250
Number Constraints Used in Cover:362
GRASP Method!
Number cuts repeat: 0
value: 55.156250
Number Constraints Used in Cover:369
GRASP Method!
Number cuts repeat: 0
value: 55.156250
Number Constraints Used in Cover:384
GRASP Method!
Number cuts repeat: 0
value: 55.156250
Number Constraints Used in Cover:395
GRASP Method!
Number cuts repeat: 0
value: 55.156250
Number Constraints Used in Cover:403
GRASP Method!
Number cuts repeat: 0
value: 55.156250
Number Constraints Used in Cover:409
GRASP Method!
Number cuts repeat: 0
value: 55.156250
Number Constraints Used in Cover:415
GRASP Method!
Number cuts repeat: 0
value: 55.156250
Number Constraints Used in Cover:422
GRASP Method!
Number cuts repeat: 0
value: 55.156250
Number Constraints Used in Cover:429
GRASP Method!
Number cuts repeat: 0
value: 55.156250
Number Constraints Used in Cover:435
GRASP Method!
Number cuts repeat: 0
value: 55.156250
Number Constraints Used in Cover:443
GRASP Method!
Number cuts repeat: 0
value: 55.156250
Number Constraints Used in Cover:446
GRASP Method!
Number cuts repeat: 0
value: 55.156250
Number Constraints Used in Cover:447
GRASP Method!
Number cuts repeat: 0
value: 55.156250
Number Constraints Used in Cover:449
GRASP Method!
Number cuts repeat: 0
value: 55.156250
Number Constraints Used in Cover:460
GRASP Method!
Number cuts repeat: 0
value: 55.156250
Number Constraints Used in Cover:468
GRASP Method!
Number cuts repeat: 0
value: 55.156250
Number Constraints Used in Cover:481
GRASP Method!
Number cuts repeat: 0
value: 55.156250
Number Constraints Used in Cover:492
GRASP Method!
Number cuts repeat: 0
value: 55.156250
Number Constraints Used in Cover:503
GRASP Method!
Number cuts repeat: 0
value: 55.156250
Number Constraints Used in Cover:513
GRASP Method!
Number cuts repeat: 0
value: 55.156250
Number Constraints Used in Cover:526
GRASP Method!
Number cuts repeat: 0
value: 55.156250
Number Constraints Used in Cover:542
GRASP Method!
Number cuts repeat: 0
value: 55.156250
Number Constraints Used in Cover:558
GRASP Method!
Number cuts repeat: 0
value: 55.156250
Number Constraints Used in Cover:568
GRASP Method!
Number cuts repeat: 0
value: 55.156250
Number Constraints Used in Cover:573
GRASP Method!
Number cuts repeat: 0
value: 55.156250
Number Constraints Used in Cover:582
GRASP Method!
Number cuts repeat: 0
value: 55.156250
Number Constraints Used in Cover:589
GRASP Method!
Number cuts repeat: 0
value: 55.156250
Number Constraints Used in Cover:595
GRASP Method!
Number cuts repeat: 0
value: 55.156250
Number Constraints Used in Cover:604
GRASP Method!
Number cuts repeat: 0
value: 55.156250
Number Constraints Used in Cover:610
GRASP Method!
Number cuts repeat: 0
value: 55.156250
Number Constraints Used in Cover:614
GRASP Method!
Number cuts repeat: 0
value: 55.156250
Number Constraints Used in Cover:615
GRASP Method!
Number cuts repeat: 0
value: 55.156250
Number Constraints Used in Cover:619
GRASP Method!
Number cuts repeat: 0
value: 55.156250
Number Constraints Used in Cover:619
GRASP Method!
Number cuts repeat: 0
value: 55.156250
Number Constraints Used in Cover:631
GRASP Method!
Number cuts repeat: 0
value: 55.156250
Number Constraints Used in Cover:636
GRASP Method!
Number cuts repeat: 0
value: 55.156250
Number Constraints Used in Cover:640
GRASP Method!
Number cuts repeat: 0
value: 55.156250
Number Constraints Used in Cover:642
GRASP Method!
Number cuts repeat: 0
value: 55.156250
Number Constraints Used in Cover:647
GRASP Method!
Number cuts repeat: 0
value: 55.156250
Number Constraints Used in Cover:648
GRASP Method!
Number cuts repeat: 0
value: 55.156250
Number Constraints Used in Cover:655
GRASP Method!
Number cuts repeat: 0
value: 55.156250
Number Constraints Used in Cover:658
GRASP Method!
Number cuts repeat: 0
value: 55.156250
Number Constraints Used in Cover:664
GRASP Method!
Number cuts repeat: 0
value: 55.156250
Number Constraints Used in Cover:669
GRASP Method!
Number cuts repeat: 0
value: 55.156250
Number Constraints Used in Cover:675
GRASP Method!
Number cuts repeat: 0
value: 55.156250
Number Constraints Used in Cover:686
GRASP Method!
Number cuts repeat: 0
value: 55.156250
Number Constraints Used in Cover:693
GRASP Method!
Number cuts repeat: 0
value: 55.156250
Number Constraints Used in Cover:698
GRASP Method!
Number cuts repeat: 0
value: 55.156250
Number Cuts Final: 700
